Reading model...
...model read.
creating competitive generators file...
...competitive generators recorded.
Loading data...
.. real-time data read.
Compiling instance...
...instance created.
Creating Offer Mitigation (model will solve as dispatch if TRUE)...
...storage offer mitigation file created
Converting model to MPEC...
...converted
NOTE: initial MIP solve with only storage competitive to get feasible solution
Solving...

Welcome to IBM(R) ILOG(R) CPLEX(R) Interactive Optimizer 12.9.0.0
  with Simplex, Mixed Integer & Barrier Optimizers
5725-A06 5725-A29 5724-Y48 5724-Y49 5724-Y54 5724-Y55 5655-Y21
Copyright IBM Corp. 1988, 2019.  All Rights Reserved.

Type 'help' for a list of available commands.
Type 'help' followed by a command name for more
information on commands.

CPLEX> Logfile 'cplex.log' closed.
Logfile 'C:\Users\llavin\Desktop\test826\logs\tmpvuucl9cr.cplex.log' open.
CPLEX> New value for parallel optimization mode: -1
CPLEX> New value for mixed integer optimality gap tolerance: 0.5
CPLEX> New value for feasibility tolerance: 1e-09
CPLEX> New value for deterministic time limit in ticks: 150000
CPLEX> Problem 'C:\Users\llavin\Desktop\test826\logs\tmpfi0o93yo.pyomo.lp' read.
Read time = 0.55 sec. (28.85 ticks)
CPLEX> Problem name         : C:\Users\llavin\Desktop\test826\logs\tmpfi0o93yo.pyomo.lp
Objective sense      : Maximize
Variables            :  107783  [Nneg: 1,  Box: 44058,  Free: 8928,
                                 Binary: 54796]
Objective nonzeros   :   19009
Linear constraints   :  246903  [Less: 82866,  Greater: 118424,  Equal: 45613]
  Nonzeros           :  619901
  RHS nonzeros       :  136514

Variables            : Min LB: -100000.0        Max UB: 1000000.       
Objective nonzeros   : Min   : 0.1666667        Max   : 208.3333       
Linear constraints   :
  Nonzeros           : Min   : 0.1666667        Max   : 1000000.       
  RHS nonzeros       : Min   : 0.1666667        Max   : 1000000.       
CPLEX> CPXPARAM_Parallel                                -1
CPXPARAM_Simplex_Tolerances_Feasibility          1.0000000000000001e-09
CPXPARAM_DetTimeLimit                            150000
CPXPARAM_MIP_Tolerances_MIPGap                   0.5
Tried aggregator 3 times.
MIP Presolve eliminated 173633 rows and 34672 columns.
MIP Presolve added 7679 rows and 0 columns.
MIP Presolve modified 53010 coefficients.
Aggregator did 26046 substitutions.
Reduced MIP has 54903 rows, 46681 columns, and 157474 nonzeros.
Reduced MIP has 18495 binaries, 0 generals, 0 SOSs, and 0 indicators.
Presolve time = 0.63 sec. (349.93 ticks)
Probing fixed 810 vars, tightened 15592 bounds.
Probing time = 0.45 sec. (18.87 ticks)
Tried aggregator 2 times.
MIP Presolve eliminated 1828 rows and 1645 columns.
MIP Presolve modified 7067 coefficients.
Aggregator did 80 substitutions.
Reduced MIP has 52995 rows, 44956 columns, and 151853 nonzeros.
Reduced MIP has 17680 binaries, 0 generals, 0 SOSs, and 0 indicators.
Presolve time = 0.31 sec. (277.01 ticks)
Probing fixed 5 vars, tightened 476 bounds.
Probing time = 0.59 sec. (21.61 ticks)
Clique table members: 86906.
MIP emphasis: balance optimality and feasibility.
MIP search method: dynamic search.
Parallel mode: opportunistic, using up to 32 threads.
Root relaxation solution time = 1.20 sec. (1851.25 ticks)

        Nodes                                         Cuts/
   Node  Left     Objective  IInf  Best Integer    Best Bound    ItCnt     Gap

      0     0        0.0000    21                      0.0000     7851         
*     0+    0                            0.0000        0.0000             0.00%
      0     0        cutoff              0.0000        0.0000     7851    0.00%
Elapsed time = 4.11 sec. (3037.80 ticks, tree = 0.01 MB, solutions = 1)

Root node processing (before b&c):
  Real time             =    4.16 sec. (3041.80 ticks)
Parallel b&c, 32 threads:
  Real time             =    0.00 sec. (0.00 ticks)
  Sync time (average)   =    0.00 sec.
  Wait time (average)   =    0.00 sec.
                          ------------
Total (root+branch&cut) =    4.16 sec. (3041.80 ticks)

Solution pool: 1 solution saved.

MIP - Integer optimal solution:  Objective =  6.4596861193e-10
Solution time =    4.19 sec.  Iterations = 7851  Nodes = 0
Deterministic time = 3042.11 ticks  (726.39 ticks/sec)

CPLEX> Incumbent solution written to file 'C:\Users\llavin\Desktop\test826\logs\tmp09h3ylvt.cplex.sol'.
CPLEX> NOTE: no warmstart specified for MIP iteration, default behavior is true
NOTE: resolving with all competitive generators using storage-only solution to warmstart
Solving...

Welcome to IBM(R) ILOG(R) CPLEX(R) Interactive Optimizer 12.9.0.0
  with Simplex, Mixed Integer & Barrier Optimizers
5725-A06 5725-A29 5724-Y48 5724-Y49 5724-Y54 5724-Y55 5655-Y21
Copyright IBM Corp. 1988, 2019.  All Rights Reserved.

Type 'help' for a list of available commands.
Type 'help' followed by a command name for more
information on commands.

CPLEX> Logfile 'cplex.log' closed.
Logfile 'C:\Users\llavin\Desktop\test826\logs\tmp48agole2.cplex.log' open.
CPLEX> New value for parallel optimization mode: -1
CPLEX> New value for mixed integer optimality gap tolerance: 0.5
CPLEX> New value for feasibility tolerance: 1e-09
CPLEX> New value for deterministic time limit in ticks: 150000
CPLEX> Problem 'C:\Users\llavin\Desktop\test826\logs\tmp792w_s99.pyomo.lp' read.
Read time = 0.55 sec. (28.90 ticks)
CPLEX> MIP start file 'C:\Users\llavin\Desktop\test826\logs\tmpz_5_stmd.cplex.mst' read.
CPLEX> Problem name         : C:\Users\llavin\Desktop\test826\logs\tmp792w_s99.pyomo.lp
Objective sense      : Maximize
Variables            :  109223  [Nneg: 1,  Box: 45498,  Free: 8928,
                                 Binary: 54796]
Objective nonzeros   :   20401
Linear constraints   :  246903  [Less: 82866,  Greater: 118424,  Equal: 45613]
  Nonzeros           :  619901
  RHS nonzeros       :  136514

Variables            : Min LB: -100000.0        Max UB: 1000000.       
Objective nonzeros   : Min   : 0.1666667        Max   : 208.3333       
Linear constraints   :
  Nonzeros           : Min   : 0.1666667        Max   : 1000000.       
  RHS nonzeros       : Min   : 0.1666667        Max   : 1000000.       
CPLEX> CPXPARAM_Parallel                                -1
CPXPARAM_Simplex_Tolerances_Feasibility          1.0000000000000001e-09
CPXPARAM_DetTimeLimit                            150000
CPXPARAM_MIP_Tolerances_MIPGap                   0.5
Warning:  No solution found from 1 MIP starts.
Retaining values of one MIP start for possible repair.
Tried aggregator 3 times.
MIP Presolve eliminated 173633 rows and 36112 columns.
MIP Presolve added 7679 rows and 0 columns.
MIP Presolve modified 53010 coefficients.
Aggregator did 26046 substitutions.
Reduced MIP has 54903 rows, 46681 columns, and 157474 nonzeros.
Reduced MIP has 18495 binaries, 0 generals, 0 SOSs, and 0 indicators.
Presolve time = 0.63 sec. (350.66 ticks)
Probing fixed 810 vars, tightened 15592 bounds.
Probing time = 0.45 sec. (18.87 ticks)
Tried aggregator 2 times.
MIP Presolve eliminated 1828 rows and 1645 columns.
MIP Presolve modified 7067 coefficients.
Aggregator did 80 substitutions.
Reduced MIP has 52995 rows, 44956 columns, and 151853 nonzeros.
Reduced MIP has 17680 binaries, 0 generals, 0 SOSs, and 0 indicators.
Presolve time = 0.31 sec. (277.03 ticks)
Probing fixed 5 vars, tightened 476 bounds.
Probing time = 0.61 sec. (21.61 ticks)
Clique table members: 86906.
MIP emphasis: balance optimality and feasibility.
MIP search method: dynamic search.
Parallel mode: opportunistic, using up to 32 threads.
Root relaxation solution time = 1.45 sec. (2104.81 ticks)

        Nodes                                         Cuts/
   Node  Left     Objective  IInf  Best Integer    Best Bound    ItCnt     Gap

      0     0     1291.3203    58                   1291.3203     9893         
      0     0     1291.3203     4                    Cuts: 12     9898         
      0     0     1291.3203     7                    Cuts: 19     9908         
      0     0     1291.3203     8                   Covers: 1     9909         
Repair heuristic found nothing.
*     0+   46                          786.4479     Covers: 2            64.20%
Elapsed time = 14.48 sec. (7884.22 ticks, tree = 5.55 MB, solutions = 11)
    278   131      908.9783     3      786.4479     1291.3203    10452   64.20%
    771    66     1256.6199     8      786.4479     1291.3203    10254   64.20%
   1307   135      908.9783     3      786.4479     1291.3203    10402   64.20%
   1814   127     1101.9662     5      786.4479     1291.3203    10337   64.20%
   2370   879     1063.6320     7      786.4479     1291.3203    12198   64.20%
   2902   991     1256.6199     6      786.4479     1291.3203    12489   64.20%
   3430   877     1256.6199     6      786.4479     1291.3203    12090   64.20%
   3930  1355      908.9783     2      786.4479     1291.3203    13242   64.20%
   4418  2698      908.9783     2      786.4479     1291.3203    17157   64.20%
   6459  3457     1063.6320     4      786.4479     1291.3203    19159   64.20%
Elapsed time = 34.77 sec. (10988.01 ticks, tree = 57.27 MB, solutions = 11)
   8184  5408      908.9783     2      786.4479     1291.3203    24408   64.20%
   8541  8051     1098.3323     5      786.4479     1256.6199    40876   59.78%
   8597    29     1291.3203     7      786.4479     1256.6199    40657   59.78%
   8614    61     1291.3203     7      786.4479     1256.6199    40801   59.78%

Cover cuts applied:  1
Flow cuts applied:  4
Zero-half cuts applied:  1
Gomory fractional cuts applied:  1

Root node processing (before b&c):
  Real time             =    9.97 sec. (7770.06 ticks)
Parallel b&c, 32 threads:
  Real time             =   45.19 sec. (14804.09 ticks)
  Sync time (average)   =    5.66 sec.
  Wait time (average)   =    0.32 sec.
                          ------------
Total (root+branch&cut) =   55.16 sec. (22574.15 ticks)

Solution pool: 11 solutions saved.

MIP - Integer optimal, tolerance (0.5/1e-06):  Objective =  7.8644787051e+02
Current MIP best bound =  1.1687898279e+03 (gap = 382.342, 48.62%)
Solution time =   55.20 sec.  Iterations = 41004  Nodes = 8624 (84)
Deterministic time = 22574.46 ticks  (408.94 ticks/sec)

CPLEX> Incumbent solution written to file 'C:\Users\llavin\Desktop\test826\logs\tmpm9v_8qnk.cplex.sol'.
CPLEX> Exporting results... 
